c description: tiling of 
c generator: CNFgen (0.9.0)
c copyright: (C) 2012-2020 Massimo Lauria <massimo.lauria@uniroma1.it>
c url: https://massimolauria.net/cnfgen
c
p cnf 20 98
-1 -10 0
1 10 0
-1 -10 0
-1 -19 0
-10 -19 0
1 10 19 0
-2 -3 0
-2 -9 0
-2 -13 0
-2 -19 0
-2 -20 0
-3 -9 0
-3 -13 0
-3 -19 0
-3 -20 0
-9 -13 0
-9 -19 0
-9 -20 0
-13 -19 0
-13 -20 0
-19 -20 0
2 3 9 13 19 20 0
-2 -9 0
-2 -10 0
-2 -19 0
-2 -20 0
-9 -10 0
-9 -19 0
-9 -20 0
-10 -19 0
-10 -20 0
-19 -20 0
2 9 10 19 20 0
-2 -9 0
-2 -17 0
-2 -19 0
-9 -17 0
-9 -19 0
-17 -19 0
2 9 17 19 0
-2 -17 0
2 17 0
-3 -5 0
-3 -8 0
-3 -13 0
-3 -16 0
-5 -8 0
-5 -13 0
-5 -16 0
-8 -13 0
-8 -16 0
-13 -16 0
3 5 8 13 16 0
-3 -8 0
-3 -9 0
-3 -18 0
-8 -9 0
-8 -18 0
-9 -18 0
3 8 9 18 0
-3 -14 0
-3 -15 0
-3 -18 0
-14 -15 0
-14 -18 0
-15 -18 0
3 14 15 18 0
4 0
-5 -8 0
5 8 0
-6 -8 0
-6 -9 0
-6 -13 0
-6 -16 0
-8 -9 0
-8 -13 0
-8 -16 0
-9 -13 0
-9 -16 0
-13 -16 0
6 8 9 13 16 0
-6 -13 0
6 13 0
-7 -11 0
7 11 0
-8 -13 0
-8 -16 0
-13 -16 0
8 13 16 0
-9 -19 0
-9 -20 0
-19 -20 0
9 19 20 0
12 0
-14 -18 0
14 18 0
-15 -18 0
15 18 0